========================================================== 
File name: C:\DEGR\assets\definitions\MSRCPSP_Gen\100_40_512_10_D.def
Creation date: Wed May 03 10:44:22 CEST 2023
Website: http://imopse.ii.pwr.edu.pl/ 
Reference: 
Myszkowski P. B., Skowronski M. E., Olech L., Oslizlo K., 
Hybrid Ant Colony Optimization in solving Multi-Skill Resource-Constrained Project Scheduling Problem, 
Soft Computing, DOI: DOI 10.1007/s00500-014-1455-x 
========================================================== 
General characteristics: 
Tasks: 100
Resources: 40
Precedence relations: 476
Number of skill types: 10
========================================================== 
ResourceID 	 Salary 	 Skills 
1	 	 	85.9	 	 Q9: 2 	  Q3: 1 	 
2	 	 	93.2	 	 Q0: 2 	  Q5: 3 	  Q8: 0 	 
3	 	 	36.1	 	 Q1: 1 	  Q2: 3 	  Q9: 2 	 
4	 	 	90.7	 	 Q0: 2 	  Q3: 0 	 
5	 	 	39.0	 	 Q0: 2 	  Q6: 2 	  Q3: 3 	  Q8: 3 	  Q5: 1 	  Q9: 0 	  Q4: 2 	  Q7: 3 	 
6	 	 	39.0	 	 Q8: 3 	  Q9: 3 	  Q4: 3 	  Q1: 3 	  Q3: 1 	  Q5: 3 	 
7	 	 	10.6	 	 Q5: 2 	  Q3: 2 	 
8	 	 	51.0	 	 Q5: 2 	  Q6: 1 	  Q1: 2 	  Q9: 0 	  Q7: 3 	  Q3: 0 	 
9	 	 	77.0	 	 Q1: 0 	 
10	 	 	89.3	 	 Q4: 1 	  Q7: 0 	  Q0: 3 	  Q8: 3 	  Q2: 1 	  Q9: 2 	 
11	 	 	39.3	 	 Q2: 0 	  Q8: 3 	  Q6: 1 	  Q1: 2 	  Q0: 2 	  Q5: 2 	 
12	 	 	30.2	 	 Q6: 0 	  Q8: 2 	 
13	 	 	23.3	 	 Q2: 1 	  Q7: 3 	  Q0: 0 	  Q3: 1 	  Q9: 1 	  Q5: 1 	 
14	 	 	16.4	 	 Q3: 0 	  Q0: 0 	  Q1: 0 	  Q6: 2 	  Q9: 0 	 
15	 	 	77.7	 	 Q4: 1 	  Q9: 3 	  Q3: 0 	  Q5: 2 	  Q0: 1 	  Q8: 2 	  Q2: 1 	  Q6: 1 	 
16	 	 	76.8	 	 Q1: 0 	  Q3: 0 	  Q0: 3 	  Q2: 1 	  Q8: 3 	  Q7: 0 	  Q6: 2 	  Q4: 3 	 
17	 	 	82.5	 	 Q0: 2 	  Q6: 2 	  Q8: 0 	 
18	 	 	65.3	 	 Q4: 3 	  Q3: 0 	  Q5: 0 	 
19	 	 	77.3	 	 Q0: 2 	  Q9: 0 	  Q2: 1 	  Q4: 2 	  Q8: 3 	  Q1: 1 	  Q5: 1 	  Q7: 2 	 
20	 	 	38.8	 	 Q1: 0 	 
21	 	 	78.8	 	 Q9: 0 	  Q4: 0 	  Q2: 0 	  Q0: 0 	  Q3: 0 	  Q7: 0 	  Q5: 3 	  Q8: 3 	 
22	 	 	34.4	 	 Q9: 0 	  Q2: 2 	  Q6: 1 	  Q0: 2 	  Q5: 0 	  Q1: 0 	  Q4: 0 	 
23	 	 	34.7	 	 Q2: 1 	  Q4: 2 	  Q0: 3 	  Q8: 1 	  Q6: 0 	  Q5: 0 	  Q3: 1 	  Q7: 2 	 
24	 	 	58.7	 	 Q6: 3 	 
25	 	 	66.7	 	 Q2: 1 	  Q3: 0 	 
26	 	 	45.1	 	 Q8: 0 	  Q2: 1 	  Q5: 2 	  Q4: 3 	  Q0: 3 	 
27	 	 	13.3	 	 Q2: 3 	  Q5: 1 	  Q0: 2 	  Q3: 2 	  Q7: 1 	  Q9: 0 	  Q1: 2 	  Q4: 2 	  Q6: 1 	 
28	 	 	67.7	 	 Q4: 0 	  Q2: 0 	  Q9: 0 	  Q8: 2 	  Q5: 0 	 
29	 	 	95.4	 	 Q4: 0 	  Q8: 2 	  Q7: 1 	  Q2: 2 	  Q1: 1 	  Q3: 0 	  Q5: 0 	  Q0: 3 	  Q9: 2 	 
30	 	 	47.9	 	 Q0: 3 	  Q4: 1 	  Q2: 2 	  Q3: 1 	  Q8: 2 	  Q7: 1 	  Q1: 2 	  Q6: 3 	 
31	 	 	56.5	 	 Q1: 1 	  Q5: 0 	  Q3: 3 	  Q0: 0 	  Q7: 0 	 
32	 	 	58.7	 	 Q6: 1 	  Q4: 3 	  Q5: 3 	 
33	 	 	21.0	 	 Q7: 1 	  Q4: 1 	  Q3: 2 	  Q2: 0 	  Q5: 1 	  Q8: 3 	  Q9: 3 	  Q0: 1 	 
34	 	 	83.1	 	 Q1: 0 	  Q2: 0 	  Q6: 1 	  Q0: 0 	  Q5: 0 	  Q9: 0 	 
35	 	 	74.9	 	 Q6: 0 	  Q9: 2 	  Q4: 0 	  Q7: 3 	  Q1: 3 	 
36	 	 	11.5	 	 Q4: 1 	  Q2: 1 	  Q7: 3 	  Q5: 0 	 
37	 	 	39.6	 	 Q3: 2 	  Q5: 0 	  Q0: 3 	  Q2: 1 	  Q1: 1 	  Q4: 2 	  Q7: 2 	  Q6: 1 	 
38	 	 	64.0	 	 Q0: 1 	  Q4: 0 	  Q9: 2 	  Q2: 2 	  Q5: 2 	  Q3: 0 	 
39	 	 	83.5	 	 Q8: 1 	  Q4: 0 	  Q1: 2 	  Q6: 3 	  Q3: 1 	  Q0: 1 	  Q7: 3 	 
40	 	 	29.7	 	 Q7: 2 	  Q0: 2 	 
========================================================== 
TaskID 	 Duration 	 Skill 	 Predecessor IDs 
1	19	Q7:	1
2	17	Q6:	0
3	36	Q0:	2
4	19	Q9:	3
5	12	Q3:	0	1
6	28	Q7:	1
7	9	Q0:	3	2
8	33	Q7:	2	6	2
9	28	Q0:	2	1
10	25	Q2:	2	3	6
11	11	Q4:	0
12	18	Q9:	0
13	30	Q6:	1	6	4
14	37	Q7:	1	8
15	27	Q4:	1	11
16	22	Q9:	3	7
17	28	Q3:	1	13	11	12
18	28	Q0:	2	16	17	6	1
19	17	Q1:	1	14	4	17
20	16	Q8:	3	3
21	20	Q4:	3	10	8
22	16	Q4:	3	8	21	13	9	14
23	24	Q2:	0	3	17	22
24	25	Q9:	1
25	23	Q2:	1	10	18	2	21
26	9	Q3:	1	14	22	16
27	15	Q0:	2	18
28	31	Q0:	1	26	9
29	23	Q1:	1	8	18	22	19
30	31	Q0:	1	10	22
31	17	Q0:	0	20	15	5
32	21	Q8:	3	7	17	14
33	13	Q3:	2	26	22	29	9	6
34	15	Q6:	1	15	7
35	17	Q9:	0	32	22	2
36	18	Q4:	0	3	32	21
37	29	Q5:	1	13	23	2
38	11	Q1:	2	8
39	11	Q5:	1	15	21	34	20	16	25	38	22	36
40	22	Q4:	2	15	29	22	19	39	10
41	32	Q9:	3	20	8
42	12	Q3:	0	18	10	34	36	13	33
43	17	Q5:	0	2	37	31	3
44	9	Q5:	0	37	2	30	38	36
45	29	Q3:	2	27	20	43	30	13	9	1
46	28	Q8:	2	33	31	13
47	39	Q7:	3	13	32	25
48	31	Q4:	1	9	36	31	14
49	37	Q2:	0	31
50	32	Q1:	0	33	47
51	26	Q4:	2	25	31	5	47	43
52	24	Q4:	2	27	24	28	15	38	51	1	49
53	39	Q5:	3	43	31	3
54	36	Q4:	1	30	43
55	27	Q5:	3	54	22
56	22	Q5:	2	21	39	37	20	2	29
57	40	Q9:	2	44	4	45	47	6	2
58	40	Q2:	0	29	33	56	43	6
59	31	Q3:	2	56	6	51	31	24	34
60	14	Q0:	1	57	7	28	45	34
61	14	Q1:	0	38	41	45	15	27	42	17	7
62	27	Q0:	0	1	48	5	56	47	6	2
63	24	Q2:	3	40	42	6	17	7	30	55	35
64	31	Q7:	2	21	20	40	31	51	23
65	21	Q1:	2	8	45	37
66	38	Q8:	3	4	26	41	48	21	14	60	12	39	52	38	9	36	10
67	28	Q6:	0	17
68	24	Q8:	2	60	10	39
69	17	Q0:	1	62	66	52	3	28	10	46
70	19	Q3:	3	62	18	64	24	54
71	31	Q6:	2	34	53	70
72	23	Q2:	3	24	51
73	20	Q8:	3	10	19	5	55	53	9	60	16	25
74	27	Q9:	3	33	29	48	59	16	67
75	12	Q5:	0	25	8	26	69	13	64
76	28	Q1:	3	21	45	15	25	69	20	14	75	73	5
77	13	Q0:	3	69	4	42	23	41
78	19	Q8:	0	24	30	12	43	62	63	8	1	56	55	6
79	20	Q2:	2	55	6	17	13	7	23	11
80	9	Q5:	3	78	54	53	49	36	27	72
81	32	Q0:	2	13	11	40	62	27	77
82	27	Q2:	0	56	16	28	53	41	48	80
83	22	Q3:	2	10	29	24	76	61	77
84	8	Q1:	0	60	55	33	27	6
85	33	Q5:	1	76	23	11	37
86	31	Q3:	0	45	4	47	70	54	40	82	11	27	18
87	40	Q0:	3	17	57	52	8	33	25	51	81	7
88	15	Q8:	3	48	38	68	54	41	86	12	9
89	20	Q1:	3	35	5	84	81	51	40	32	30	45	86	13	44	76	25	74	75
90	36	Q5:	2	10	26	13	53	65	41	77	84
91	21	Q9:	3	36	43	69	39	12	89	15	16	11	41	80
92	31	Q0:	1	1	89	34	87	72	66	22	36	79
93	10	Q4:	2	53	24	89	54	11	7	57
94	15	Q6:	2	86	28	15	8	65	5	80	21	13	83	68
95	10	Q7:	2	31	28	53	10	83	39	4	9	8	91
96	35	Q1:	0	15	61	29	43	79	56
97	40	Q1:	0	16	51	7	26	42	75	54	82	44
98	14	Q9:	3	48	38	21	8	64	31	10
99	24	Q9:	0	15	87	2	19	49	51	79	73	84	25	95	54	13	77	55	21	91
100	29	Q2:	0	7	84	62	53	5	80	45	50	48	23
========================================================== 